\ENCODING=ISO-8859-1
\Problem name: IloCplex

Minimize
 obj1: 35 xi_0_1 + 60 xi_1_2 + 59 xi_1_3 + 91 xi_1_4 + 81 xi_1_5 + 40 xi_1_6
       + 13 xi_1_7 + 84 xi_1_8 + 94 xi_1_9 + 100 xi_1_10 + 97 xi_1_11
       + 8 xi_1_12 + 22 xi_1_13 + 38 xi_1_14 + 97 xi_1_15 + 11 xi_1_16
       + 42 xi_1_17 + 78 xi_1_18 + 41 xi_1_19 + 67 xi_1_20 + 30 xi_1_21
       + 91 xi_1_22 + 64 xi_1_23 + 39 xi_1_24 + 102 xi_1_25 + 19 xi_1_26
       + 46 xi_1_27 + 79 xi_1_28 + 80 xi_1_29 + 19 xi_1_30 + 39 xi_1_31
       + 78 xi_0_2 + 3 xi_2_3 + 37 xi_2_4 + 87 xi_2_5 + 26 xi_2_6 + 48 xi_2_7
       + 41 xi_2_8 + 59 xi_2_9 + 90 xi_2_10 + 45 xi_2_11 + 67 xi_2_12
       + 39 xi_2_13 + 55 xi_2_14 + 77 xi_2_15 + 60 xi_2_16 + 41 xi_2_17
       + 41 xi_2_18 + 43 xi_2_19 + 88 xi_2_20 + 49 xi_2_21 + 58 xi_2_22
       + 9 xi_2_23 + 58 xi_2_24 + 101 xi_2_25 + 58 xi_2_26 + 64 xi_2_27
       + 29 xi_2_28 + 72 xi_2_29 + 65 xi_2_30 + 48 xi_2_31 + 76 xi_0_3
       + 36 xi_3_4 + 83 xi_3_5 + 24 xi_3_6 + 47 xi_3_7 + 38 xi_3_8 + 56 xi_3_9
       + 87 xi_3_10 + 44 xi_3_11 + 66 xi_3_12 + 39 xi_3_13 + 52 xi_3_14
       + 75 xi_3_15 + 58 xi_3_16 + 42 xi_3_17 + 38 xi_3_18 + 44 xi_3_19
       + 85 xi_3_20 + 49 xi_3_21 + 56 xi_3_22 + 7 xi_3_23 + 55 xi_3_24
       + 98 xi_3_25 + 56 xi_3_26 + 62 xi_3_27 + 27 xi_3_28 + 68 xi_3_29
       + 63 xi_3_30 + 49 xi_3_31 + 98 xi_0_4 + 84 xi_4_5 + 51 xi_4_6
       + 78 xi_4_7 + 17 xi_4_8 + 34 xi_4_9 + 76 xi_4_10 + 9 xi_4_11
       + 96 xi_4_12 + 73 xi_4_13 + 71 xi_4_14 + 59 xi_4_15 + 87 xi_4_16
       + 78 xi_4_17 + 26 xi_4_18 + 80 xi_4_19 + 94 xi_4_20 + 85 xi_4_21
       + 36 xi_4_22 + 29 xi_4_23 + 73 xi_4_24 + 90 xi_4_25 + 82 xi_4_26
       + 76 xi_4_27 + 13 xi_4_28 + 63 xi_4_29 + 89 xi_4_30 + 85 xi_4_31
       + 55 xi_0_5 + 66 xi_5_6 + 74 xi_5_7 + 67 xi_5_8 + 57 xi_5_9 + 27 xi_5_10
       + 83 xi_5_11 + 78 xi_5_12 + 84 xi_5_13 + 44 xi_5_14 + 37 xi_5_15
       + 70 xi_5_16 + 107 xi_5_17 + 58 xi_5_18 + 107 xi_5_19 + 21 xi_5_20
       + 102 xi_5_21 + 53 xi_5_22 + 81 xi_5_23 + 42 xi_5_24 + 22 xi_5_25
       + 61 xi_5_26 + 34 xi_5_27 + 74 xi_5_28 + 21 xi_5_29 + 63 xi_5_30
       + 109 xi_5_31 + 52 xi_0_6 + 28 xi_6_7 + 44 xi_6_8 + 57 xi_6_9
       + 76 xi_6_10 + 57 xi_6_11 + 46 xi_6_12 + 26 xi_6_13 + 29 xi_6_14
       + 67 xi_6_15 + 37 xi_6_16 + 43 xi_6_17 + 39 xi_6_18 + 44 xi_6_19
       + 64 xi_6_20 + 43 xi_6_21 + 54 xi_6_22 + 26 xi_6_23 + 32 xi_6_24
       + 83 xi_6_25 + 33 xi_6_26 + 39 xi_6_27 + 38 xi_6_28 + 55 xi_6_29
       + 40 xi_6_30 + 47 xi_6_31 + 37 xi_0_7 + 72 xi_7_8 + 82 xi_7_9
       + 92 xi_7_10 + 84 xi_7_11 + 19 xi_7_12 + 14 xi_7_13 + 30 xi_7_14
       + 87 xi_7_15 + 13 xi_7_16 + 38 xi_7_17 + 65 xi_7_18 + 37 xi_7_19
       + 64 xi_7_20 + 29 xi_7_21 + 79 xi_7_22 + 52 xi_7_23 + 33 xi_7_24
       + 95 xi_7_25 + 16 xi_7_26 + 40 xi_7_27 + 66 xi_7_28 + 71 xi_7_29
       + 21 xi_7_30 + 37 xi_7_31 + 86 xi_0_8 + 19 xi_8_9 + 59 xi_8_10
       + 17 xi_8_11 + 89 xi_8_12 + 70 xi_8_13 + 59 xi_8_14 + 43 xi_8_15
       + 79 xi_8_16 + 80 xi_8_17 + 9 xi_8_18 + 82 xi_8_19 + 78 xi_8_20
       + 85 xi_8_21 + 20 xi_8_22 + 32 xi_8_23 + 60 xi_8_24 + 73 xi_8_25
       + 73 xi_8_26 + 62 xi_8_27 + 13 xi_8_28 + 46 xi_8_29 + 80 xi_8_30
       + 86 xi_8_31 + 88 xi_0_9 + 43 xi_9_10 + 29 xi_9_11 + 97 xi_9_12
       + 83 xi_9_13 + 62 xi_9_14 + 26 xi_9_15 + 87 xi_9_16 + 96 xi_9_17
       + 18 xi_9_18 + 98 xi_9_19 + 72 xi_9_20 + 99 xi_9_21 + 4 xi_9_22
       + 50 xi_9_23 + 63 xi_9_24 + 58 xi_9_25 + 80 xi_9_26 + 63 xi_9_27
       + 32 xi_9_28 + 36 xi_9_29 + 86 xi_9_30 + 102 xi_9_31 + 79 xi_0_10
       + 72 xi_10_11 + 100 xi_10_12 + 99 xi_10_13 + 62 xi_10_14 + 17 xi_10_15
       + 90 xi_10_16 + 119 xi_10_17 + 52 xi_10_18 + 120 xi_10_19 + 48 xi_10_20
       + 117 xi_10_21 + 40 xi_10_22 + 83 xi_10_23 + 61 xi_10_24 + 16 xi_10_25
       + 82 xi_10_26 + 56 xi_10_27 + 70 xi_10_28 + 21 xi_10_29 + 85 xi_10_30
       + 122 xi_10_31 + 101 xi_0_11 + 102 xi_11_12 + 80 xi_11_13 + 74 xi_11_14
       + 55 xi_11_15 + 93 xi_11_16 + 86 xi_11_17 + 26 xi_11_18 + 88 xi_11_19
       + 94 xi_11_20 + 93 xi_11_21 + 32 xi_11_22 + 37 xi_11_23 + 76 xi_11_24
       + 87 xi_11_25 + 87 xi_11_26 + 79 xi_11_27 + 19 xi_11_28 + 62 xi_11_29
       + 94 xi_11_30 + 93 xi_11_31 + 29 xi_0_12 + 30 xi_12_13 + 38 xi_12_14
       + 98 xi_12_15 + 10 xi_12_16 + 50 xi_12_17 + 81 xi_12_18 + 49 xi_12_19
       + 63 xi_12_20 + 38 xi_12_21 + 94 xi_12_22 + 71 xi_12_23 + 38 xi_12_24
       + 100 xi_12_25 + 18 xi_12_26 + 44 xi_12_27 + 84 xi_12_28 + 80 xi_12_29
       + 15 xi_12_30 + 47 xi_12_31 + 51 xi_0_13 + 41 xi_13_14 + 92 xi_13_15
       + 26 xi_13_16 + 24 xi_13_17 + 65 xi_13_18 + 24 xi_13_19 + 76 xi_13_20
       + 18 xi_13_21 + 81 xi_13_22 + 45 xi_13_23 + 44 xi_13_24 + 104 xi_13_25
       + 30 xi_13_26 + 52 xi_13_27 + 62 xi_13_28 + 78 xi_13_29 + 35 xi_13_30
       + 24 xi_13_31 + 27 xi_0_14 + 60 xi_14_15 + 28 xi_14_16 + 64 xi_14_17
       + 50 xi_14_18 + 64 xi_14_19 + 36 xi_14_20 + 58 xi_14_21 + 59 xi_14_22
       + 53 xi_14_23 + 3 xi_14_24 + 64 xi_14_25 + 19 xi_14_26 + 11 xi_14_27
       + 58 xi_14_28 + 42 xi_14_29 + 24 xi_14_30 + 65 xi_14_31 + 82 xi_0_15
       + 88 xi_15_16 + 110 xi_15_17 + 38 xi_15_18 + 111 xi_15_19 + 56 xi_15_20
       + 110 xi_15_21 + 23 xi_15_22 + 69 xi_15_23 + 60 xi_15_24 + 33 xi_15_25
       + 80 xi_15_26 + 56 xi_15_27 + 55 xi_15_28 + 20 xi_15_29 + 84 xi_15_30
       + 114 xi_15_31 + 26 xi_0_16 + 49 xi_16_17 + 72 xi_16_18 + 48 xi_16_19
       + 57 xi_16_20 + 38 xi_16_21 + 83 xi_16_22 + 62 xi_16_23 + 29 xi_16_24
       + 91 xi_16_25 + 9 xi_16_26 + 36 xi_16_27 + 74 xi_16_28 + 71 xi_16_29
       + 9 xi_16_30 + 47 xi_16_31 + 75 xi_0_17 + 78 xi_17_18 + 2 xi_17_19
       + 100 xi_17_20 + 14 xi_17_21 + 95 xi_17_22 + 49 xi_17_23 + 67 xi_17_24
       + 125 xi_17_25 + 54 xi_17_26 + 75 xi_17_27 + 69 xi_17_28 + 98 xi_17_29
       + 58 xi_17_30 + 8 xi_17_31 + 77 xi_0_18 + 79 xi_18_19 + 68 xi_18_20
       + 81 xi_18_21 + 17 xi_18_22 + 33 xi_18_23 + 52 xi_18_24 + 66 xi_18_25
       + 65 xi_18_26 + 53 xi_18_27 + 17 xi_18_28 + 38 xi_18_29 + 72 xi_18_30
       + 83 xi_18_31 + 74 xi_0_19 + 100 xi_19_20 + 12 xi_19_21 + 96 xi_19_22
       + 51 xi_19_23 + 67 xi_19_24 + 126 xi_19_25 + 54 xi_19_26 + 75 xi_19_27
       + 71 xi_19_28 + 99 xi_19_29 + 58 xi_19_30 + 5 xi_19_31 + 36 xi_0_20
       + 92 xi_20_21 + 68 xi_20_22 + 84 xi_20_23 + 33 xi_20_24 + 41 xi_20_25
       + 48 xi_20_26 + 25 xi_20_27 + 83 xi_20_28 + 38 xi_20_29 + 48 xi_20_30
       + 100 xi_20_31 + 64 xi_0_21 + 97 xi_21_22 + 56 xi_21_23 + 61 xi_21_24
       + 122 xi_21_25 + 45 xi_21_26 + 69 xi_21_27 + 75 xi_21_28 + 96 xi_21_29
       + 48 xi_21_30 + 9 xi_21_31 + 84 xi_0_22 + 50 xi_22_23 + 59 xi_22_24
       + 55 xi_22_25 + 76 xi_22_26 + 59 xi_22_27 + 32 xi_22_28 + 32 xi_22_29
       + 82 xi_22_30 + 100 xi_22_31 + 78 xi_0_23 + 56 xi_23_24 + 94 xi_23_25
       + 60 xi_23_26 + 62 xi_23_27 + 20 xi_23_28 + 65 xi_23_29 + 67 xi_23_30
       + 56 xi_23_31 + 25 xi_0_24 + 63 xi_24_25 + 20 xi_24_26 + 8 xi_24_27
       + 60 xi_24_28 + 42 xi_24_29 + 24 xi_24_30 + 68 xi_24_31 + 76 xi_0_25
       + 82 xi_25_26 + 56 xi_25_27 + 83 xi_25_28 + 29 xi_25_29 + 85 xi_25_30
       + 128 xi_25_31 + 21 xi_0_26 + 27 xi_26_27 + 70 xi_26_28 + 62 xi_26_29
       + 7 xi_26_30 + 53 xi_26_31 + 26 xi_0_27 + 64 xi_27_28 + 37 xi_27_29
       + 29 xi_27_30 + 76 xi_27_31 + 85 xi_0_28 + 55 xi_28_29 + 77 xi_28_30
       + 76 xi_28_31 + 62 xi_0_29 + 66 xi_29_30 + 102 xi_29_31 + 16 xi_0_30
       + 57 xi_30_31 + 73 xi_0_31
Subject To
 C2_1:  xi_0_1 + xi_1_2 + xi_1_3 + xi_1_4 + xi_1_5 + xi_1_6 + xi_1_7 + xi_1_8
        + xi_1_9 + xi_1_10 + xi_1_11 + xi_1_12 + xi_1_13 + xi_1_14 + xi_1_15
        + xi_1_16 + xi_1_17 + xi_1_18 + xi_1_19 + xi_1_20 + xi_1_21 + xi_1_22
        + xi_1_23 + xi_1_24 + xi_1_25 + xi_1_26 + xi_1_27 + xi_1_28 + xi_1_29
        + xi_1_30 + xi_1_31  = 2
 C2_2:  xi_1_2 + xi_0_2 + xi_2_3 + xi_2_4 + xi_2_5 + xi_2_6 + xi_2_7 + xi_2_8
        + xi_2_9 + xi_2_10 + xi_2_11 + xi_2_12 + xi_2_13 + xi_2_14 + xi_2_15
        + xi_2_16 + xi_2_17 + xi_2_18 + xi_2_19 + xi_2_20 + xi_2_21 + xi_2_22
        + xi_2_23 + xi_2_24 + xi_2_25 + xi_2_26 + xi_2_27 + xi_2_28 + xi_2_29
        + xi_2_30 + xi_2_31  = 2
 C2_3:  xi_1_3 + xi_2_3 + xi_0_3 + xi_3_4 + xi_3_5 + xi_3_6 + xi_3_7 + xi_3_8
        + xi_3_9 + xi_3_10 + xi_3_11 + xi_3_12 + xi_3_13 + xi_3_14 + xi_3_15
        + xi_3_16 + xi_3_17 + xi_3_18 + xi_3_19 + xi_3_20 + xi_3_21 + xi_3_22
        + xi_3_23 + xi_3_24 + xi_3_25 + xi_3_26 + xi_3_27 + xi_3_28 + xi_3_29
        + xi_3_30 + xi_3_31  = 2
 C2_4:  xi_1_4 + xi_2_4 + xi_3_4 + xi_0_4 + xi_4_5 + xi_4_6 + xi_4_7 + xi_4_8
        + xi_4_9 + xi_4_10 + xi_4_11 + xi_4_12 + xi_4_13 + xi_4_14 + xi_4_15
        + xi_4_16 + xi_4_17 + xi_4_18 + xi_4_19 + xi_4_20 + xi_4_21 + xi_4_22
        + xi_4_23 + xi_4_24 + xi_4_25 + xi_4_26 + xi_4_27 + xi_4_28 + xi_4_29
        + xi_4_30 + xi_4_31  = 2
 C2_5:  xi_1_5 + xi_2_5 + xi_3_5 + xi_4_5 + xi_0_5 + xi_5_6 + xi_5_7 + xi_5_8
        + xi_5_9 + xi_5_10 + xi_5_11 + xi_5_12 + xi_5_13 + xi_5_14 + xi_5_15
        + xi_5_16 + xi_5_17 + xi_5_18 + xi_5_19 + xi_5_20 + xi_5_21 + xi_5_22
        + xi_5_23 + xi_5_24 + xi_5_25 + xi_5_26 + xi_5_27 + xi_5_28 + xi_5_29
        + xi_5_30 + xi_5_31  = 2
 C2_6:  xi_1_6 + xi_2_6 + xi_3_6 + xi_4_6 + xi_5_6 + xi_0_6 + xi_6_7 + xi_6_8
        + xi_6_9 + xi_6_10 + xi_6_11 + xi_6_12 + xi_6_13 + xi_6_14 + xi_6_15
        + xi_6_16 + xi_6_17 + xi_6_18 + xi_6_19 + xi_6_20 + xi_6_21 + xi_6_22
        + xi_6_23 + xi_6_24 + xi_6_25 + xi_6_26 + xi_6_27 + xi_6_28 + xi_6_29
        + xi_6_30 + xi_6_31  = 2
 C2_7:  xi_1_7 + xi_2_7 + xi_3_7 + xi_4_7 + xi_5_7 + xi_6_7 + xi_0_7 + xi_7_8
        + xi_7_9 + xi_7_10 + xi_7_11 + xi_7_12 + xi_7_13 + xi_7_14 + xi_7_15
        + xi_7_16 + xi_7_17 + xi_7_18 + xi_7_19 + xi_7_20 + xi_7_21 + xi_7_22
        + xi_7_23 + xi_7_24 + xi_7_25 + xi_7_26 + xi_7_27 + xi_7_28 + xi_7_29
        + xi_7_30 + xi_7_31  = 2
 C2_8:  xi_1_8 + xi_2_8 + xi_3_8 + xi_4_8 + xi_5_8 + xi_6_8 + xi_7_8 + xi_0_8
        + xi_8_9 + xi_8_10 + xi_8_11 + xi_8_12 + xi_8_13 + xi_8_14 + xi_8_15
        + xi_8_16 + xi_8_17 + xi_8_18 + xi_8_19 + xi_8_20 + xi_8_21 + xi_8_22
        + xi_8_23 + xi_8_24 + xi_8_25 + xi_8_26 + xi_8_27 + xi_8_28 + xi_8_29
        + xi_8_30 + xi_8_31  = 2
 C2_9:  xi_1_9 + xi_2_9 + xi_3_9 + xi_4_9 + xi_5_9 + xi_6_9 + xi_7_9 + xi_8_9
        + xi_0_9 + xi_9_10 + xi_9_11 + xi_9_12 + xi_9_13 + xi_9_14 + xi_9_15
        + xi_9_16 + xi_9_17 + xi_9_18 + xi_9_19 + xi_9_20 + xi_9_21 + xi_9_22
        + xi_9_23 + xi_9_24 + xi_9_25 + xi_9_26 + xi_9_27 + xi_9_28 + xi_9_29
        + xi_9_30 + xi_9_31  = 2
 C2_10: xi_1_10 + xi_2_10 + xi_3_10 + xi_4_10 + xi_5_10 + xi_6_10 + xi_7_10
        + xi_8_10 + xi_9_10 + xi_0_10 + xi_10_11 + xi_10_12 + xi_10_13
        + xi_10_14 + xi_10_15 + xi_10_16 + xi_10_17 + xi_10_18 + xi_10_19
        + xi_10_20 + xi_10_21 + xi_10_22 + xi_10_23 + xi_10_24 + xi_10_25
        + xi_10_26 + xi_10_27 + xi_10_28 + xi_10_29 + xi_10_30 + xi_10_31  = 2
 C2_11: xi_1_11 + xi_2_11 + xi_3_11 + xi_4_11 + xi_5_11 + xi_6_11 + xi_7_11
        + xi_8_11 + xi_9_11 + xi_10_11 + xi_0_11 + xi_11_12 + xi_11_13
        + xi_11_14 + xi_11_15 + xi_11_16 + xi_11_17 + xi_11_18 + xi_11_19
        + xi_11_20 + xi_11_21 + xi_11_22 + xi_11_23 + xi_11_24 + xi_11_25
        + xi_11_26 + xi_11_27 + xi_11_28 + xi_11_29 + xi_11_30 + xi_11_31  = 2
 C2_12: xi_1_12 + xi_2_12 + xi_3_12 + xi_4_12 + xi_5_12 + xi_6_12 + xi_7_12
        + xi_8_12 + xi_9_12 + xi_10_12 + xi_11_12 + xi_0_12 + xi_12_13
        + xi_12_14 + xi_12_15 + xi_12_16 + xi_12_17 + xi_12_18 + xi_12_19
        + xi_12_20 + xi_12_21 + xi_12_22 + xi_12_23 + xi_12_24 + xi_12_25
        + xi_12_26 + xi_12_27 + xi_12_28 + xi_12_29 + xi_12_30 + xi_12_31  = 2
 C2_13: xi_1_13 + xi_2_13 + xi_3_13 + xi_4_13 + xi_5_13 + xi_6_13 + xi_7_13
        + xi_8_13 + xi_9_13 + xi_10_13 + xi_11_13 + xi_12_13 + xi_0_13
        + xi_13_14 + xi_13_15 + xi_13_16 + xi_13_17 + xi_13_18 + xi_13_19
        + xi_13_20 + xi_13_21 + xi_13_22 + xi_13_23 + xi_13_24 + xi_13_25
        + xi_13_26 + xi_13_27 + xi_13_28 + xi_13_29 + xi_13_30 + xi_13_31  = 2
 C2_14: xi_1_14 + xi_2_14 + xi_3_14 + xi_4_14 + xi_5_14 + xi_6_14 + xi_7_14
        + xi_8_14 + xi_9_14 + xi_10_14 + xi_11_14 + xi_12_14 + xi_13_14
        + xi_0_14 + xi_14_15 + xi_14_16 + xi_14_17 + xi_14_18 + xi_14_19
        + xi_14_20 + xi_14_21 + xi_14_22 + xi_14_23 + xi_14_24 + xi_14_25
        + xi_14_26 + xi_14_27 + xi_14_28 + xi_14_29 + xi_14_30 + xi_14_31  = 2
 C2_15: xi_1_15 + xi_2_15 + xi_3_15 + xi_4_15 + xi_5_15 + xi_6_15 + xi_7_15
        + xi_8_15 + xi_9_15 + xi_10_15 + xi_11_15 + xi_12_15 + xi_13_15
        + xi_14_15 + xi_0_15 + xi_15_16 + xi_15_17 + xi_15_18 + xi_15_19
        + xi_15_20 + xi_15_21 + xi_15_22 + xi_15_23 + xi_15_24 + xi_15_25
        + xi_15_26 + xi_15_27 + xi_15_28 + xi_15_29 + xi_15_30 + xi_15_31  = 2
 C2_16: xi_1_16 + xi_2_16 + xi_3_16 + xi_4_16 + xi_5_16 + xi_6_16 + xi_7_16
        + xi_8_16 + xi_9_16 + xi_10_16 + xi_11_16 + xi_12_16 + xi_13_16
        + xi_14_16 + xi_15_16 + xi_0_16 + xi_16_17 + xi_16_18 + xi_16_19
        + xi_16_20 + xi_16_21 + xi_16_22 + xi_16_23 + xi_16_24 + xi_16_25
        + xi_16_26 + xi_16_27 + xi_16_28 + xi_16_29 + xi_16_30 + xi_16_31  = 2
 C2_17: xi_1_17 + xi_2_17 + xi_3_17 + xi_4_17 + xi_5_17 + xi_6_17 + xi_7_17
        + xi_8_17 + xi_9_17 + xi_10_17 + xi_11_17 + xi_12_17 + xi_13_17
        + xi_14_17 + xi_15_17 + xi_16_17 + xi_0_17 + xi_17_18 + xi_17_19
        + xi_17_20 + xi_17_21 + xi_17_22 + xi_17_23 + xi_17_24 + xi_17_25
        + xi_17_26 + xi_17_27 + xi_17_28 + xi_17_29 + xi_17_30 + xi_17_31  = 2
 C2_18: xi_1_18 + xi_2_18 + xi_3_18 + xi_4_18 + xi_5_18 + xi_6_18 + xi_7_18
        + xi_8_18 + xi_9_18 + xi_10_18 + xi_11_18 + xi_12_18 + xi_13_18
        + xi_14_18 + xi_15_18 + xi_16_18 + xi_17_18 + xi_0_18 + xi_18_19
        + xi_18_20 + xi_18_21 + xi_18_22 + xi_18_23 + xi_18_24 + xi_18_25
        + xi_18_26 + xi_18_27 + xi_18_28 + xi_18_29 + xi_18_30 + xi_18_31  = 2
 C2_19: xi_1_19 + xi_2_19 + xi_3_19 + xi_4_19 + xi_5_19 + xi_6_19 + xi_7_19
        + xi_8_19 + xi_9_19 + xi_10_19 + xi_11_19 + xi_12_19 + xi_13_19
        + xi_14_19 + xi_15_19 + xi_16_19 + xi_17_19 + xi_18_19 + xi_0_19
        + xi_19_20 + xi_19_21 + xi_19_22 + xi_19_23 + xi_19_24 + xi_19_25
        + xi_19_26 + xi_19_27 + xi_19_28 + xi_19_29 + xi_19_30 + xi_19_31  = 2
 C2_20: xi_1_20 + xi_2_20 + xi_3_20 + xi_4_20 + xi_5_20 + xi_6_20 + xi_7_20
        + xi_8_20 + xi_9_20 + xi_10_20 + xi_11_20 + xi_12_20 + xi_13_20
        + xi_14_20 + xi_15_20 + xi_16_20 + xi_17_20 + xi_18_20 + xi_19_20
        + xi_0_20 + xi_20_21 + xi_20_22 + xi_20_23 + xi_20_24 + xi_20_25
        + xi_20_26 + xi_20_27 + xi_20_28 + xi_20_29 + xi_20_30 + xi_20_31  = 2
 C2_21: xi_1_21 + xi_2_21 + xi_3_21 + xi_4_21 + xi_5_21 + xi_6_21 + xi_7_21
        + xi_8_21 + xi_9_21 + xi_10_21 + xi_11_21 + xi_12_21 + xi_13_21
        + xi_14_21 + xi_15_21 + xi_16_21 + xi_17_21 + xi_18_21 + xi_19_21
        + xi_20_21 + xi_0_21 + xi_21_22 + xi_21_23 + xi_21_24 + xi_21_25
        + xi_21_26 + xi_21_27 + xi_21_28 + xi_21_29 + xi_21_30 + xi_21_31  = 2
 C2_22: xi_1_22 + xi_2_22 + xi_3_22 + xi_4_22 + xi_5_22 + xi_6_22 + xi_7_22
        + xi_8_22 + xi_9_22 + xi_10_22 + xi_11_22 + xi_12_22 + xi_13_22
        + xi_14_22 + xi_15_22 + xi_16_22 + xi_17_22 + xi_18_22 + xi_19_22
        + xi_20_22 + xi_21_22 + xi_0_22 + xi_22_23 + xi_22_24 + xi_22_25
        + xi_22_26 + xi_22_27 + xi_22_28 + xi_22_29 + xi_22_30 + xi_22_31  = 2
 C2_23: xi_1_23 + xi_2_23 + xi_3_23 + xi_4_23 + xi_5_23 + xi_6_23 + xi_7_23
        + xi_8_23 + xi_9_23 + xi_10_23 + xi_11_23 + xi_12_23 + xi_13_23
        + xi_14_23 + xi_15_23 + xi_16_23 + xi_17_23 + xi_18_23 + xi_19_23
        + xi_20_23 + xi_21_23 + xi_22_23 + xi_0_23 + xi_23_24 + xi_23_25
        + xi_23_26 + xi_23_27 + xi_23_28 + xi_23_29 + xi_23_30 + xi_23_31  = 2
 C2_24: xi_1_24 + xi_2_24 + xi_3_24 + xi_4_24 + xi_5_24 + xi_6_24 + xi_7_24
        + xi_8_24 + xi_9_24 + xi_10_24 + xi_11_24 + xi_12_24 + xi_13_24
        + xi_14_24 + xi_15_24 + xi_16_24 + xi_17_24 + xi_18_24 + xi_19_24
        + xi_20_24 + xi_21_24 + xi_22_24 + xi_23_24 + xi_0_24 + xi_24_25
        + xi_24_26 + xi_24_27 + xi_24_28 + xi_24_29 + xi_24_30 + xi_24_31  = 2
 C2_25: xi_1_25 + xi_2_25 + xi_3_25 + xi_4_25 + xi_5_25 + xi_6_25 + xi_7_25
        + xi_8_25 + xi_9_25 + xi_10_25 + xi_11_25 + xi_12_25 + xi_13_25
        + xi_14_25 + xi_15_25 + xi_16_25 + xi_17_25 + xi_18_25 + xi_19_25
        + xi_20_25 + xi_21_25 + xi_22_25 + xi_23_25 + xi_24_25 + xi_0_25
        + xi_25_26 + xi_25_27 + xi_25_28 + xi_25_29 + xi_25_30 + xi_25_31  = 2
 C2_26: xi_1_26 + xi_2_26 + xi_3_26 + xi_4_26 + xi_5_26 + xi_6_26 + xi_7_26
        + xi_8_26 + xi_9_26 + xi_10_26 + xi_11_26 + xi_12_26 + xi_13_26
        + xi_14_26 + xi_15_26 + xi_16_26 + xi_17_26 + xi_18_26 + xi_19_26
        + xi_20_26 + xi_21_26 + xi_22_26 + xi_23_26 + xi_24_26 + xi_25_26
        + xi_0_26 + xi_26_27 + xi_26_28 + xi_26_29 + xi_26_30 + xi_26_31  = 2
 C2_27: xi_1_27 + xi_2_27 + xi_3_27 + xi_4_27 + xi_5_27 + xi_6_27 + xi_7_27
        + xi_8_27 + xi_9_27 + xi_10_27 + xi_11_27 + xi_12_27 + xi_13_27
        + xi_14_27 + xi_15_27 + xi_16_27 + xi_17_27 + xi_18_27 + xi_19_27
        + xi_20_27 + xi_21_27 + xi_22_27 + xi_23_27 + xi_24_27 + xi_25_27
        + xi_26_27 + xi_0_27 + xi_27_28 + xi_27_29 + xi_27_30 + xi_27_31  = 2
 C2_28: xi_1_28 + xi_2_28 + xi_3_28 + xi_4_28 + xi_5_28 + xi_6_28 + xi_7_28
        + xi_8_28 + xi_9_28 + xi_10_28 + xi_11_28 + xi_12_28 + xi_13_28
        + xi_14_28 + xi_15_28 + xi_16_28 + xi_17_28 + xi_18_28 + xi_19_28
        + xi_20_28 + xi_21_28 + xi_22_28 + xi_23_28 + xi_24_28 + xi_25_28
        + xi_26_28 + xi_27_28 + xi_0_28 + xi_28_29 + xi_28_30 + xi_28_31  = 2
 C2_29: xi_1_29 + xi_2_29 + xi_3_29 + xi_4_29 + xi_5_29 + xi_6_29 + xi_7_29
        + xi_8_29 + xi_9_29 + xi_10_29 + xi_11_29 + xi_12_29 + xi_13_29
        + xi_14_29 + xi_15_29 + xi_16_29 + xi_17_29 + xi_18_29 + xi_19_29
        + xi_20_29 + xi_21_29 + xi_22_29 + xi_23_29 + xi_24_29 + xi_25_29
        + xi_26_29 + xi_27_29 + xi_28_29 + xi_0_29 + xi_29_30 + xi_29_31  = 2
 C2_30: xi_1_30 + xi_2_30 + xi_3_30 + xi_4_30 + xi_5_30 + xi_6_30 + xi_7_30
        + xi_8_30 + xi_9_30 + xi_10_30 + xi_11_30 + xi_12_30 + xi_13_30
        + xi_14_30 + xi_15_30 + xi_16_30 + xi_17_30 + xi_18_30 + xi_19_30
        + xi_20_30 + xi_21_30 + xi_22_30 + xi_23_30 + xi_24_30 + xi_25_30
        + xi_26_30 + xi_27_30 + xi_28_30 + xi_29_30 + xi_0_30 + xi_30_31  = 2
 C2_31: xi_1_31 + xi_2_31 + xi_3_31 + xi_4_31 + xi_5_31 + xi_6_31 + xi_7_31
        + xi_8_31 + xi_9_31 + xi_10_31 + xi_11_31 + xi_12_31 + xi_13_31
        + xi_14_31 + xi_15_31 + xi_16_31 + xi_17_31 + xi_18_31 + xi_19_31
        + xi_20_31 + xi_21_31 + xi_22_31 + xi_23_31 + xi_24_31 + xi_25_31
        + xi_26_31 + xi_27_31 + xi_28_31 + xi_29_31 + xi_30_31 + xi_0_31  = 2
 C4:    xi_0_1 + xi_0_2 + xi_0_3 + xi_0_4 + xi_0_5 + xi_0_6 + xi_0_7 + xi_0_8
        + xi_0_9 + xi_0_10 + xi_0_11 + xi_0_12 + xi_0_13 + xi_0_14 + xi_0_15
        + xi_0_16 + xi_0_17 + xi_0_18 + xi_0_19 + xi_0_20 + xi_0_21 + xi_0_22
        + xi_0_23 + xi_0_24 + xi_0_25 + xi_0_26 + xi_0_27 + xi_0_28 + xi_0_29
        + xi_0_30 + xi_0_31  = 10
Bounds
 0 <= xi_0_1 <= 2
 0 <= xi_1_2 <= 1
 0 <= xi_1_3 <= 1
 0 <= xi_1_4 <= 1
 0 <= xi_1_5 <= 1
 0 <= xi_1_6 <= 1
 0 <= xi_1_7 <= 1
 0 <= xi_1_8 <= 1
 0 <= xi_1_9 <= 1
 0 <= xi_1_10 <= 1
 0 <= xi_1_11 <= 1
 0 <= xi_1_12 <= 1
 0 <= xi_1_13 <= 1
 0 <= xi_1_14 <= 1
 0 <= xi_1_15 <= 1
 0 <= xi_1_16 <= 1
 0 <= xi_1_17 <= 1
 0 <= xi_1_18 <= 1
 0 <= xi_1_19 <= 1
 0 <= xi_1_20 <= 1
 0 <= xi_1_21 <= 1
 0 <= xi_1_22 <= 1
 0 <= xi_1_23 <= 1
 0 <= xi_1_24 <= 1
 0 <= xi_1_25 <= 1
 0 <= xi_1_26 <= 1
 0 <= xi_1_27 <= 1
 0 <= xi_1_28 <= 1
 0 <= xi_1_29 <= 1
 0 <= xi_1_30 <= 1
 0 <= xi_1_31 <= 1
 0 <= xi_0_2 <= 2
 0 <= xi_2_3 <= 1
 0 <= xi_2_4 <= 1
 0 <= xi_2_5 <= 1
 0 <= xi_2_6 <= 1
 0 <= xi_2_7 <= 1
 0 <= xi_2_8 <= 1
 0 <= xi_2_9 <= 1
 0 <= xi_2_10 <= 1
 0 <= xi_2_11 <= 1
 0 <= xi_2_12 <= 1
 0 <= xi_2_13 <= 1
 0 <= xi_2_14 <= 1
 0 <= xi_2_15 <= 1
 0 <= xi_2_16 <= 1
 0 <= xi_2_17 <= 1
 0 <= xi_2_18 <= 1
 0 <= xi_2_19 <= 1
 0 <= xi_2_20 <= 1
 0 <= xi_2_21 <= 1
 0 <= xi_2_22 <= 1
 0 <= xi_2_23 <= 1
 0 <= xi_2_24 <= 1
 0 <= xi_2_25 <= 1
 0 <= xi_2_26 <= 1
 0 <= xi_2_27 <= 1
 0 <= xi_2_28 <= 1
 0 <= xi_2_29 <= 1
 0 <= xi_2_30 <= 1
 0 <= xi_2_31 <= 1
 0 <= xi_0_3 <= 2
 0 <= xi_3_4 <= 1
 0 <= xi_3_5 <= 1
 0 <= xi_3_6 <= 1
 0 <= xi_3_7 <= 1
 0 <= xi_3_8 <= 1
 0 <= xi_3_9 <= 1
 0 <= xi_3_10 <= 1
 0 <= xi_3_11 <= 1
 0 <= xi_3_12 <= 1
 0 <= xi_3_13 <= 1
 0 <= xi_3_14 <= 1
 0 <= xi_3_15 <= 1
 0 <= xi_3_16 <= 1
 0 <= xi_3_17 <= 1
 0 <= xi_3_18 <= 1
 0 <= xi_3_19 <= 1
 0 <= xi_3_20 <= 1
 0 <= xi_3_21 <= 1
 0 <= xi_3_22 <= 1
 0 <= xi_3_23 <= 1
 0 <= xi_3_24 <= 1
 0 <= xi_3_25 <= 1
 0 <= xi_3_26 <= 1
 0 <= xi_3_27 <= 1
 0 <= xi_3_28 <= 1
 0 <= xi_3_29 <= 1
 0 <= xi_3_30 <= 1
 0 <= xi_3_31 <= 1
 0 <= xi_0_4 <= 2
 0 <= xi_4_5 <= 1
 0 <= xi_4_6 <= 1
 0 <= xi_4_7 <= 1
 0 <= xi_4_8 <= 1
 0 <= xi_4_9 <= 1
 0 <= xi_4_10 <= 1
 0 <= xi_4_11 <= 1
 0 <= xi_4_12 <= 1
 0 <= xi_4_13 <= 1
 0 <= xi_4_14 <= 1
 0 <= xi_4_15 <= 1
 0 <= xi_4_16 <= 1
 0 <= xi_4_17 <= 1
 0 <= xi_4_18 <= 1
 0 <= xi_4_19 <= 1
 0 <= xi_4_20 <= 1
 0 <= xi_4_21 <= 1
 0 <= xi_4_22 <= 1
 0 <= xi_4_23 <= 1
 0 <= xi_4_24 <= 1
 0 <= xi_4_25 <= 1
 0 <= xi_4_26 <= 1
 0 <= xi_4_27 <= 1
 0 <= xi_4_28 <= 1
 0 <= xi_4_29 <= 1
 0 <= xi_4_30 <= 1
 0 <= xi_4_31 <= 1
 0 <= xi_0_5 <= 2
 0 <= xi_5_6 <= 1
 0 <= xi_5_7 <= 1
 0 <= xi_5_8 <= 1
 0 <= xi_5_9 <= 1
 0 <= xi_5_10 <= 1
 0 <= xi_5_11 <= 1
 0 <= xi_5_12 <= 1
 0 <= xi_5_13 <= 1
 0 <= xi_5_14 <= 1
 0 <= xi_5_15 <= 1
 0 <= xi_5_16 <= 1
 0 <= xi_5_17 <= 1
 0 <= xi_5_18 <= 1
 0 <= xi_5_19 <= 1
 0 <= xi_5_20 <= 1
 0 <= xi_5_21 <= 1
 0 <= xi_5_22 <= 1
 0 <= xi_5_23 <= 1
 0 <= xi_5_24 <= 1
 0 <= xi_5_25 <= 1
 0 <= xi_5_26 <= 1
 0 <= xi_5_27 <= 1
 0 <= xi_5_28 <= 1
 0 <= xi_5_29 <= 1
 0 <= xi_5_30 <= 1
 0 <= xi_5_31 <= 1
 0 <= xi_0_6 <= 2
 0 <= xi_6_7 <= 1
 0 <= xi_6_8 <= 1
 0 <= xi_6_9 <= 1
 0 <= xi_6_10 <= 1
 0 <= xi_6_11 <= 1
 0 <= xi_6_12 <= 1
 0 <= xi_6_13 <= 1
 0 <= xi_6_14 <= 1
 0 <= xi_6_15 <= 1
 0 <= xi_6_16 <= 1
 0 <= xi_6_17 <= 1
 0 <= xi_6_18 <= 1
 0 <= xi_6_19 <= 1
 0 <= xi_6_20 <= 1
 0 <= xi_6_21 <= 1
 0 <= xi_6_22 <= 1
 0 <= xi_6_23 <= 1
 0 <= xi_6_24 <= 1
 0 <= xi_6_25 <= 1
 0 <= xi_6_26 <= 1
 0 <= xi_6_27 <= 1
 0 <= xi_6_28 <= 1
 0 <= xi_6_29 <= 1
 0 <= xi_6_30 <= 1
 0 <= xi_6_31 <= 1
 0 <= xi_0_7 <= 2
 0 <= xi_7_8 <= 1
 0 <= xi_7_9 <= 1
 0 <= xi_7_10 <= 1
 0 <= xi_7_11 <= 1
 0 <= xi_7_12 <= 1
 0 <= xi_7_13 <= 1
 0 <= xi_7_14 <= 1
 0 <= xi_7_15 <= 1
 0 <= xi_7_16 <= 1
 0 <= xi_7_17 <= 1
 0 <= xi_7_18 <= 1
 0 <= xi_7_19 <= 1
 0 <= xi_7_20 <= 1
 0 <= xi_7_21 <= 1
 0 <= xi_7_22 <= 1
 0 <= xi_7_23 <= 1
 0 <= xi_7_24 <= 1
 0 <= xi_7_25 <= 1
 0 <= xi_7_26 <= 1
 0 <= xi_7_27 <= 1
 0 <= xi_7_28 <= 1
 0 <= xi_7_29 <= 1
 0 <= xi_7_30 <= 1
 0 <= xi_7_31 <= 1
 0 <= xi_0_8 <= 2
 0 <= xi_8_9 <= 1
 0 <= xi_8_10 <= 1
 0 <= xi_8_11 <= 1
 0 <= xi_8_12 <= 1
 0 <= xi_8_13 <= 1
 0 <= xi_8_14 <= 1
 0 <= xi_8_15 <= 1
 0 <= xi_8_16 <= 1
 0 <= xi_8_17 <= 1
 0 <= xi_8_18 <= 1
 0 <= xi_8_19 <= 1
 0 <= xi_8_20 <= 1
 0 <= xi_8_21 <= 1
 0 <= xi_8_22 <= 1
 0 <= xi_8_23 <= 1
 0 <= xi_8_24 <= 1
 0 <= xi_8_25 <= 1
 0 <= xi_8_26 <= 1
 0 <= xi_8_27 <= 1
 0 <= xi_8_28 <= 1
 0 <= xi_8_29 <= 1
 0 <= xi_8_30 <= 1
 0 <= xi_8_31 <= 1
 0 <= xi_0_9 <= 2
 0 <= xi_9_10 <= 1
 0 <= xi_9_11 <= 1
 0 <= xi_9_12 <= 1
 0 <= xi_9_13 <= 1
 0 <= xi_9_14 <= 1
 0 <= xi_9_15 <= 1
 0 <= xi_9_16 <= 1
 0 <= xi_9_17 <= 1
 0 <= xi_9_18 <= 1
 0 <= xi_9_19 <= 1
 0 <= xi_9_20 <= 1
 0 <= xi_9_21 <= 1
 0 <= xi_9_22 <= 1
 0 <= xi_9_23 <= 1
 0 <= xi_9_24 <= 1
 0 <= xi_9_25 <= 1
 0 <= xi_9_26 <= 1
 0 <= xi_9_27 <= 1
 0 <= xi_9_28 <= 1
 0 <= xi_9_29 <= 1
 0 <= xi_9_30 <= 1
 0 <= xi_9_31 <= 1
 0 <= xi_0_10 <= 2
 0 <= xi_10_11 <= 1
 0 <= xi_10_12 <= 1
 0 <= xi_10_13 <= 1
 0 <= xi_10_14 <= 1
 0 <= xi_10_15 <= 1
 0 <= xi_10_16 <= 1
 0 <= xi_10_17 <= 1
 0 <= xi_10_18 <= 1
 0 <= xi_10_19 <= 1
 0 <= xi_10_20 <= 1
 0 <= xi_10_21 <= 1
 0 <= xi_10_22 <= 1
 0 <= xi_10_23 <= 1
 0 <= xi_10_24 <= 1
 0 <= xi_10_25 <= 1
 0 <= xi_10_26 <= 1
 0 <= xi_10_27 <= 1
 0 <= xi_10_28 <= 1
 0 <= xi_10_29 <= 1
 0 <= xi_10_30 <= 1
 0 <= xi_10_31 <= 1
 0 <= xi_0_11 <= 2
 0 <= xi_11_12 <= 1
 0 <= xi_11_13 <= 1
 0 <= xi_11_14 <= 1
 0 <= xi_11_15 <= 1
 0 <= xi_11_16 <= 1
 0 <= xi_11_17 <= 1
 0 <= xi_11_18 <= 1
 0 <= xi_11_19 <= 1
 0 <= xi_11_20 <= 1
 0 <= xi_11_21 <= 1
 0 <= xi_11_22 <= 1
 0 <= xi_11_23 <= 1
 0 <= xi_11_24 <= 1
 0 <= xi_11_25 <= 1
 0 <= xi_11_26 <= 1
 0 <= xi_11_27 <= 1
 0 <= xi_11_28 <= 1
 0 <= xi_11_29 <= 1
 0 <= xi_11_30 <= 1
 0 <= xi_11_31 <= 1
 0 <= xi_0_12 <= 2
 0 <= xi_12_13 <= 1
 0 <= xi_12_14 <= 1
 0 <= xi_12_15 <= 1
 0 <= xi_12_16 <= 1
 0 <= xi_12_17 <= 1
 0 <= xi_12_18 <= 1
 0 <= xi_12_19 <= 1
 0 <= xi_12_20 <= 1
 0 <= xi_12_21 <= 1
 0 <= xi_12_22 <= 1
 0 <= xi_12_23 <= 1
 0 <= xi_12_24 <= 1
 0 <= xi_12_25 <= 1
 0 <= xi_12_26 <= 1
 0 <= xi_12_27 <= 1
 0 <= xi_12_28 <= 1
 0 <= xi_12_29 <= 1
 0 <= xi_12_30 <= 1
 0 <= xi_12_31 <= 1
 0 <= xi_0_13 <= 2
 0 <= xi_13_14 <= 1
 0 <= xi_13_15 <= 1
 0 <= xi_13_16 <= 1
 0 <= xi_13_17 <= 1
 0 <= xi_13_18 <= 1
 0 <= xi_13_19 <= 1
 0 <= xi_13_20 <= 1
 0 <= xi_13_21 <= 1
 0 <= xi_13_22 <= 1
 0 <= xi_13_23 <= 1
 0 <= xi_13_24 <= 1
 0 <= xi_13_25 <= 1
 0 <= xi_13_26 <= 1
 0 <= xi_13_27 <= 1
 0 <= xi_13_28 <= 1
 0 <= xi_13_29 <= 1
 0 <= xi_13_30 <= 1
 0 <= xi_13_31 <= 1
 0 <= xi_0_14 <= 2
 0 <= xi_14_15 <= 1
 0 <= xi_14_16 <= 1
 0 <= xi_14_17 <= 1
 0 <= xi_14_18 <= 1
 0 <= xi_14_19 <= 1
 0 <= xi_14_20 <= 1
 0 <= xi_14_21 <= 1
 0 <= xi_14_22 <= 1
 0 <= xi_14_23 <= 1
 0 <= xi_14_24 <= 1
 0 <= xi_14_25 <= 1
 0 <= xi_14_26 <= 1
 0 <= xi_14_27 <= 1
 0 <= xi_14_28 <= 1
 0 <= xi_14_29 <= 1
 0 <= xi_14_30 <= 1
 0 <= xi_14_31 <= 1
 0 <= xi_0_15 <= 2
 0 <= xi_15_16 <= 1
 0 <= xi_15_17 <= 1
 0 <= xi_15_18 <= 1
 0 <= xi_15_19 <= 1
 0 <= xi_15_20 <= 1
 0 <= xi_15_21 <= 1
 0 <= xi_15_22 <= 1
 0 <= xi_15_23 <= 1
 0 <= xi_15_24 <= 1
 0 <= xi_15_25 <= 1
 0 <= xi_15_26 <= 1
 0 <= xi_15_27 <= 1
 0 <= xi_15_28 <= 1
 0 <= xi_15_29 <= 1
 0 <= xi_15_30 <= 1
 0 <= xi_15_31 <= 1
 0 <= xi_0_16 <= 2
 0 <= xi_16_17 <= 1
 0 <= xi_16_18 <= 1
 0 <= xi_16_19 <= 1
 0 <= xi_16_20 <= 1
 0 <= xi_16_21 <= 1
 0 <= xi_16_22 <= 1
 0 <= xi_16_23 <= 1
 0 <= xi_16_24 <= 1
 0 <= xi_16_25 <= 1
 0 <= xi_16_26 <= 1
 0 <= xi_16_27 <= 1
 0 <= xi_16_28 <= 1
 0 <= xi_16_29 <= 1
 0 <= xi_16_30 <= 1
 0 <= xi_16_31 <= 1
 0 <= xi_0_17 <= 2
 0 <= xi_17_18 <= 1
 0 <= xi_17_19 <= 1
 0 <= xi_17_20 <= 1
 0 <= xi_17_21 <= 1
 0 <= xi_17_22 <= 1
 0 <= xi_17_23 <= 1
 0 <= xi_17_24 <= 1
 0 <= xi_17_25 <= 1
 0 <= xi_17_26 <= 1
 0 <= xi_17_27 <= 1
 0 <= xi_17_28 <= 1
 0 <= xi_17_29 <= 1
 0 <= xi_17_30 <= 1
 0 <= xi_17_31 <= 1
 0 <= xi_0_18 <= 2
 0 <= xi_18_19 <= 1
 0 <= xi_18_20 <= 1
 0 <= xi_18_21 <= 1
 0 <= xi_18_22 <= 1
 0 <= xi_18_23 <= 1
 0 <= xi_18_24 <= 1
 0 <= xi_18_25 <= 1
 0 <= xi_18_26 <= 1
 0 <= xi_18_27 <= 1
 0 <= xi_18_28 <= 1
 0 <= xi_18_29 <= 1
 0 <= xi_18_30 <= 1
 0 <= xi_18_31 <= 1
 0 <= xi_0_19 <= 2
 0 <= xi_19_20 <= 1
 0 <= xi_19_21 <= 1
 0 <= xi_19_22 <= 1
 0 <= xi_19_23 <= 1
 0 <= xi_19_24 <= 1
 0 <= xi_19_25 <= 1
 0 <= xi_19_26 <= 1
 0 <= xi_19_27 <= 1
 0 <= xi_19_28 <= 1
 0 <= xi_19_29 <= 1
 0 <= xi_19_30 <= 1
 0 <= xi_19_31 <= 1
 0 <= xi_0_20 <= 2
 0 <= xi_20_21 <= 1
 0 <= xi_20_22 <= 1
 0 <= xi_20_23 <= 1
 0 <= xi_20_24 <= 1
 0 <= xi_20_25 <= 1
 0 <= xi_20_26 <= 1
 0 <= xi_20_27 <= 1
 0 <= xi_20_28 <= 1
 0 <= xi_20_29 <= 1
 0 <= xi_20_30 <= 1
 0 <= xi_20_31 <= 1
 0 <= xi_0_21 <= 2
 0 <= xi_21_22 <= 1
 0 <= xi_21_23 <= 1
 0 <= xi_21_24 <= 1
 0 <= xi_21_25 <= 1
 0 <= xi_21_26 <= 1
 0 <= xi_21_27 <= 1
 0 <= xi_21_28 <= 1
 0 <= xi_21_29 <= 1
 0 <= xi_21_30 <= 1
 0 <= xi_21_31 <= 1
 0 <= xi_0_22 <= 2
 0 <= xi_22_23 <= 1
 0 <= xi_22_24 <= 1
 0 <= xi_22_25 <= 1
 0 <= xi_22_26 <= 1
 0 <= xi_22_27 <= 1
 0 <= xi_22_28 <= 1
 0 <= xi_22_29 <= 1
 0 <= xi_22_30 <= 1
 0 <= xi_22_31 <= 1
 0 <= xi_0_23 <= 2
 0 <= xi_23_24 <= 1
 0 <= xi_23_25 <= 1
 0 <= xi_23_26 <= 1
 0 <= xi_23_27 <= 1
 0 <= xi_23_28 <= 1
 0 <= xi_23_29 <= 1
 0 <= xi_23_30 <= 1
 0 <= xi_23_31 <= 1
 0 <= xi_0_24 <= 2
 0 <= xi_24_25 <= 1
 0 <= xi_24_26 <= 1
 0 <= xi_24_27 <= 1
 0 <= xi_24_28 <= 1
 0 <= xi_24_29 <= 1
 0 <= xi_24_30 <= 1
 0 <= xi_24_31 <= 1
 0 <= xi_0_25 <= 2
 0 <= xi_25_26 <= 1
 0 <= xi_25_27 <= 1
 0 <= xi_25_28 <= 1
 0 <= xi_25_29 <= 1
 0 <= xi_25_30 <= 1
 0 <= xi_25_31 <= 1
 0 <= xi_0_26 <= 2
 0 <= xi_26_27 <= 1
 0 <= xi_26_28 <= 1
 0 <= xi_26_29 <= 1
 0 <= xi_26_30 <= 1
 0 <= xi_26_31 <= 1
 0 <= xi_0_27 <= 2
 0 <= xi_27_28 <= 1
 0 <= xi_27_29 <= 1
 0 <= xi_27_30 <= 1
 0 <= xi_27_31 <= 1
 0 <= xi_0_28 <= 2
 0 <= xi_28_29 <= 1
 0 <= xi_28_30 <= 1
 0 <= xi_28_31 <= 1
 0 <= xi_0_29 <= 2
 0 <= xi_29_30 <= 1
 0 <= xi_29_31 <= 1
 0 <= xi_0_30 <= 2
 0 <= xi_30_31 <= 1
 0 <= xi_0_31 <= 2
Binaries
 xi_1_2  xi_1_3  xi_1_4  xi_1_5  xi_1_6  xi_1_7  xi_1_8  xi_1_9  xi_1_10 
 xi_1_11  xi_1_12  xi_1_13  xi_1_14  xi_1_15  xi_1_16  xi_1_17  xi_1_18 
 xi_1_19  xi_1_20  xi_1_21  xi_1_22  xi_1_23  xi_1_24  xi_1_25  xi_1_26 
 xi_1_27  xi_1_28  xi_1_29  xi_1_30  xi_1_31  xi_2_3  xi_2_4  xi_2_5  xi_2_6 
 xi_2_7  xi_2_8  xi_2_9  xi_2_10  xi_2_11  xi_2_12  xi_2_13  xi_2_14  xi_2_15 
 xi_2_16  xi_2_17  xi_2_18  xi_2_19  xi_2_20  xi_2_21  xi_2_22  xi_2_23 
 xi_2_24  xi_2_25  xi_2_26  xi_2_27  xi_2_28  xi_2_29  xi_2_30  xi_2_31 
 xi_3_4  xi_3_5  xi_3_6  xi_3_7  xi_3_8  xi_3_9  xi_3_10  xi_3_11  xi_3_12 
 xi_3_13  xi_3_14  xi_3_15  xi_3_16  xi_3_17  xi_3_18  xi_3_19  xi_3_20 
 xi_3_21  xi_3_22  xi_3_23  xi_3_24  xi_3_25  xi_3_26  xi_3_27  xi_3_28 
 xi_3_29  xi_3_30  xi_3_31  xi_4_5  xi_4_6  xi_4_7  xi_4_8  xi_4_9  xi_4_10 
 xi_4_11  xi_4_12  xi_4_13  xi_4_14  xi_4_15  xi_4_16  xi_4_17  xi_4_18 
 xi_4_19  xi_4_20  xi_4_21  xi_4_22  xi_4_23  xi_4_24  xi_4_25  xi_4_26 
 xi_4_27  xi_4_28  xi_4_29  xi_4_30  xi_4_31  xi_5_6  xi_5_7  xi_5_8  xi_5_9 
 xi_5_10  xi_5_11  xi_5_12  xi_5_13  xi_5_14  xi_5_15  xi_5_16  xi_5_17 
 xi_5_18  xi_5_19  xi_5_20  xi_5_21  xi_5_22  xi_5_23  xi_5_24  xi_5_25 
 xi_5_26  xi_5_27  xi_5_28  xi_5_29  xi_5_30  xi_5_31  xi_6_7  xi_6_8  xi_6_9 
 xi_6_10  xi_6_11  xi_6_12  xi_6_13  xi_6_14  xi_6_15  xi_6_16  xi_6_17 
 xi_6_18  xi_6_19  xi_6_20  xi_6_21  xi_6_22  xi_6_23  xi_6_24  xi_6_25 
 xi_6_26  xi_6_27  xi_6_28  xi_6_29  xi_6_30  xi_6_31  xi_7_8  xi_7_9  xi_7_10 
 xi_7_11  xi_7_12  xi_7_13  xi_7_14  xi_7_15  xi_7_16  xi_7_17  xi_7_18 
 xi_7_19  xi_7_20  xi_7_21  xi_7_22  xi_7_23  xi_7_24  xi_7_25  xi_7_26 
 xi_7_27  xi_7_28  xi_7_29  xi_7_30  xi_7_31  xi_8_9  xi_8_10  xi_8_11 
 xi_8_12  xi_8_13  xi_8_14  xi_8_15  xi_8_16  xi_8_17  xi_8_18  xi_8_19 
 xi_8_20  xi_8_21  xi_8_22  xi_8_23  xi_8_24  xi_8_25  xi_8_26  xi_8_27 
 xi_8_28  xi_8_29  xi_8_30  xi_8_31  xi_9_10  xi_9_11  xi_9_12  xi_9_13 
 xi_9_14  xi_9_15  xi_9_16  xi_9_17  xi_9_18  xi_9_19  xi_9_20  xi_9_21 
 xi_9_22  xi_9_23  xi_9_24  xi_9_25  xi_9_26  xi_9_27  xi_9_28  xi_9_29 
 xi_9_30  xi_9_31  xi_10_11  xi_10_12  xi_10_13  xi_10_14  xi_10_15  xi_10_16 
 xi_10_17  xi_10_18  xi_10_19  xi_10_20  xi_10_21  xi_10_22  xi_10_23 
 xi_10_24  xi_10_25  xi_10_26  xi_10_27  xi_10_28  xi_10_29  xi_10_30 
 xi_10_31  xi_11_12  xi_11_13  xi_11_14  xi_11_15  xi_11_16  xi_11_17 
 xi_11_18  xi_11_19  xi_11_20  xi_11_21  xi_11_22  xi_11_23  xi_11_24 
 xi_11_25  xi_11_26  xi_11_27  xi_11_28  xi_11_29  xi_11_30  xi_11_31 
 xi_12_13  xi_12_14  xi_12_15  xi_12_16  xi_12_17  xi_12_18  xi_12_19 
 xi_12_20  xi_12_21  xi_12_22  xi_12_23  xi_12_24  xi_12_25  xi_12_26 
 xi_12_27  xi_12_28  xi_12_29  xi_12_30  xi_12_31  xi_13_14  xi_13_15 
 xi_13_16  xi_13_17  xi_13_18  xi_13_19  xi_13_20  xi_13_21  xi_13_22 
 xi_13_23  xi_13_24  xi_13_25  xi_13_26  xi_13_27  xi_13_28  xi_13_29 
 xi_13_30  xi_13_31  xi_14_15  xi_14_16  xi_14_17  xi_14_18  xi_14_19 
 xi_14_20  xi_14_21  xi_14_22  xi_14_23  xi_14_24  xi_14_25  xi_14_26 
 xi_14_27  xi_14_28  xi_14_29  xi_14_30  xi_14_31  xi_15_16  xi_15_17 
 xi_15_18  xi_15_19  xi_15_20  xi_15_21  xi_15_22  xi_15_23  xi_15_24 
 xi_15_25  xi_15_26  xi_15_27  xi_15_28  xi_15_29  xi_15_30  xi_15_31 
 xi_16_17  xi_16_18  xi_16_19  xi_16_20  xi_16_21  xi_16_22  xi_16_23 
 xi_16_24  xi_16_25  xi_16_26  xi_16_27  xi_16_28  xi_16_29  xi_16_30 
 xi_16_31  xi_17_18  xi_17_19  xi_17_20  xi_17_21  xi_17_22  xi_17_23 
 xi_17_24  xi_17_25  xi_17_26  xi_17_27  xi_17_28  xi_17_29  xi_17_30 
 xi_17_31  xi_18_19  xi_18_20  xi_18_21  xi_18_22  xi_18_23  xi_18_24 
 xi_18_25  xi_18_26  xi_18_27  xi_18_28  xi_18_29  xi_18_30  xi_18_31 
 xi_19_20  xi_19_21  xi_19_22  xi_19_23  xi_19_24  xi_19_25  xi_19_26 
 xi_19_27  xi_19_28  xi_19_29  xi_19_30  xi_19_31  xi_20_21  xi_20_22 
 xi_20_23  xi_20_24  xi_20_25  xi_20_26  xi_20_27  xi_20_28  xi_20_29 
 xi_20_30  xi_20_31  xi_21_22  xi_21_23  xi_21_24  xi_21_25  xi_21_26 
 xi_21_27  xi_21_28  xi_21_29  xi_21_30  xi_21_31  xi_22_23  xi_22_24 
 xi_22_25  xi_22_26  xi_22_27  xi_22_28  xi_22_29  xi_22_30  xi_22_31 
 xi_23_24  xi_23_25  xi_23_26  xi_23_27  xi_23_28  xi_23_29  xi_23_30 
 xi_23_31  xi_24_25  xi_24_26  xi_24_27  xi_24_28  xi_24_29  xi_24_30 
 xi_24_31  xi_25_26  xi_25_27  xi_25_28  xi_25_29  xi_25_30  xi_25_31 
 xi_26_27  xi_26_28  xi_26_29  xi_26_30  xi_26_31  xi_27_28  xi_27_29 
 xi_27_30  xi_27_31  xi_28_29  xi_28_30  xi_28_31  xi_29_30  xi_29_31 
 xi_30_31 
Generals
 xi_0_1  xi_0_2  xi_0_3  xi_0_4  xi_0_5  xi_0_6  xi_0_7  xi_0_8  xi_0_9 
 xi_0_10  xi_0_11  xi_0_12  xi_0_13  xi_0_14  xi_0_15  xi_0_16  xi_0_17 
 xi_0_18  xi_0_19  xi_0_20  xi_0_21  xi_0_22  xi_0_23  xi_0_24  xi_0_25 
 xi_0_26  xi_0_27  xi_0_28  xi_0_29  xi_0_30  xi_0_31 
End
